; DUP3 PUSH cw_2 PUSH cw_3 SWAP1 SWAP2 SWAP1 => PUSH cw_2 DUP4 PUSH cw_3
(set-option :produce-proofs true)
; 
(set-info :status unknown)
(declare-fun storage_t ((_ BitVec 256) (_ BitVec 256) (_ BitVec 256) (_ BitVec 256) (_ BitVec 256) Int (_ BitVec 256)) (_ BitVec 256))
(declare-fun w_3 () (_ BitVec 256))
(declare-fun w_2 () (_ BitVec 256))
(declare-fun storage_s ((_ BitVec 256) (_ BitVec 256) (_ BitVec 256) (_ BitVec 256) (_ BitVec 256) Int (_ BitVec 256)) (_ BitVec 256))
(declare-fun exc_halt_t (Int) Bool)
(declare-fun exc_halt_s (Int) Bool)
(declare-fun stack_t ((_ BitVec 256) (_ BitVec 256) (_ BitVec 256) (_ BitVec 256) (_ BitVec 256) Int (_ BitVec 6)) (_ BitVec 256))
(declare-fun stack_s ((_ BitVec 256) (_ BitVec 256) (_ BitVec 256) (_ BitVec 256) (_ BitVec 256) Int (_ BitVec 6)) (_ BitVec 256))
(declare-fun sc_t (Int) (_ BitVec 6))
(declare-fun sc_s (Int) (_ BitVec 6))
(declare-fun used_gas_t ((_ BitVec 256) (_ BitVec 256) (_ BitVec 256) (_ BitVec 256) (_ BitVec 256) Int) Int)
(declare-fun used_gas_s ((_ BitVec 256) (_ BitVec 256) (_ BitVec 256) (_ BitVec 256) (_ BitVec 256) Int) Int)
(assert
 (exists ((x_0 (_ BitVec 256)) (x_1 (_ BitVec 256)) (x_2 (_ BitVec 256)) )(let (($x606 (forall ((w (_ BitVec 256)) )(let ((?x6385 (storage_t x_0 x_1 x_2 w_2 w_3 3 w)))
 (let ((?x5093 (storage_s x_0 x_1 x_2 w_2 w_3 6 w)))
 (= ?x5093 ?x6385))))
 ))
 (let (($x9131 (exc_halt_t 3)))
 (let (($x7121 (exc_halt_s 6)))
 (let (($x10285 (= $x7121 $x9131)))
 (let (($x258 (forall ((n (_ BitVec 6)) )(let ((?x816 (stack_t x_0 x_1 x_2 w_2 w_3 3 n)))
 (let ((?x9275 (stack_s x_0 x_1 x_2 w_2 w_3 6 n)))
 (let (($x11348 (= ?x9275 ?x816)))
 (or (bvsle (sc_t 3) n) $x11348)))))
 ))
 (let ((?x10013 (sc_t 3)))
 (let ((?x9114 (sc_s 6)))
 (let (($x10208 (= ?x9114 ?x10013)))
 (let ((?x8406 (used_gas_t x_0 x_1 x_2 w_2 w_3 0)))
 (let ((?x8795 (used_gas_s x_0 x_1 x_2 w_2 w_3 0)))
 (let (($x5245 (= ?x8795 ?x8406)))
 (let (($x9396 (forall ((w (_ BitVec 256)) )(let ((?x1065 (storage_t x_0 x_1 x_2 w_2 w_3 0 w)))
 (let ((?x5957 (storage_s x_0 x_1 x_2 w_2 w_3 0 w)))
 (= ?x5957 ?x1065))))
 ))
 (let (($x56 (exc_halt_t 0)))
 (let (($x57 (exc_halt_s 0)))
 (let (($x58 (= $x57 $x56)))
 (let (($x9975 (forall ((n (_ BitVec 6)) )(let ((?x63 (sc_t 0)))
 (let (($x7659 (bvsle ?x63 n)))
 (let ((?x7435 (stack_t x_0 x_1 x_2 w_2 w_3 0 n)))
 (let ((?x35 (stack_s x_0 x_1 x_2 w_2 w_3 0 n)))
 (let (($x3319 (= ?x35 ?x7435)))
 (or $x3319 $x7659)))))))
 ))
 (let ((?x63 (sc_t 0)))
 (let ((?x72 (sc_s 0)))
 (let (($x73 (= ?x72 ?x63)))
 (let (($x8186 (exc_halt_t 2)))
 (let (($x3731 (or $x8186 (not (= ((_ extract 6 6) (bvadd (_ bv1 7) (concat (_ bv0 1) (sc_t 2)))) (_ bv0 1))))))
 (let (($x692 (forall ((w (_ BitVec 256)) )(let ((?x9802 (storage_t x_0 x_1 x_2 w_2 w_3 2 w)))
 (let ((?x6385 (storage_t x_0 x_1 x_2 w_2 w_3 3 w)))
 (= ?x6385 ?x9802))))
 ))
 (let (($x9921 (forall ((n (_ BitVec 6)) )(let ((?x10649 (stack_t x_0 x_1 x_2 w_2 w_3 2 n)))
 (let ((?x816 (stack_t x_0 x_1 x_2 w_2 w_3 3 n)))
 (or (= ?x816 ?x10649) (bvsle (sc_t 2) n)))))
 ))
 (let (($x8078 (= (used_gas_t x_0 x_1 x_2 w_2 w_3 3) (+ 3 (used_gas_t x_0 x_1 x_2 w_2 w_3 2)))))
 (let (($x4852 (exc_halt_t 1)))
 (let (($x9565 (or $x4852 (not (= ((_ extract 6 6) (bvadd (_ bv1 7) (concat (_ bv0 1) (sc_t 1)))) (_ bv0 1))) (not (bvsle (_ bv0 6) (bvadd (_ bv60 6) (sc_t 1)))))))
 (let (($x4993 (forall ((w (_ BitVec 256)) )(let ((?x82 (storage_t x_0 x_1 x_2 w_2 w_3 1 w)))
 (let ((?x9802 (storage_t x_0 x_1 x_2 w_2 w_3 2 w)))
 (= ?x9802 ?x82))))
 ))
 (let (($x9191 (forall ((n (_ BitVec 6)) )(let ((?x1735 (stack_t x_0 x_1 x_2 w_2 w_3 1 n)))
 (let ((?x10649 (stack_t x_0 x_1 x_2 w_2 w_3 2 n)))
 (or (= ?x10649 ?x1735) (bvsle (bvadd (_ bv60 6) (sc_t 1)) n)))))
 ))
 (let ((?x7136 (used_gas_t x_0 x_1 x_2 w_2 w_3 2)))
 (let (($x9606 (= (stack_t x_0 x_1 x_2 w_2 w_3 2 (bvadd (_ bv63 6) (sc_t 1))) (stack_t x_0 x_1 x_2 w_2 w_3 1 (bvadd (_ bv63 6) (sc_t 1))))))
 (let (($x9776 (= (stack_t x_0 x_1 x_2 w_2 w_3 2 (bvadd (_ bv62 6) (sc_t 1))) (stack_t x_0 x_1 x_2 w_2 w_3 1 (bvadd (_ bv62 6) (sc_t 1))))))
 (let (($x6075 (= (stack_t x_0 x_1 x_2 w_2 w_3 2 (bvadd (_ bv61 6) (sc_t 1))) (stack_t x_0 x_1 x_2 w_2 w_3 1 (bvadd (_ bv61 6) (sc_t 1))))))
 (let ((?x9666 (sc_t 1)))
 (let ((?x1460 (bvadd (_ bv60 6) ?x9666)))
 (let ((?x10507 (stack_t x_0 x_1 x_2 w_2 w_3 1 ?x1460)))
 (let (($x11179 (= (stack_t x_0 x_1 x_2 w_2 w_3 2 (bvadd (_ bv63 6) (sc_t 2))) ?x10507)))
 (let (($x8663 (= $x4852 (or $x56 (not (= ((_ extract 6 6) (bvadd (_ bv1 7) (concat (_ bv0 1) ?x63))) (_ bv0 1)))))))
 (let (($x5418 (forall ((w (_ BitVec 256)) )(let ((?x1065 (storage_t x_0 x_1 x_2 w_2 w_3 0 w)))
 (let ((?x82 (storage_t x_0 x_1 x_2 w_2 w_3 1 w)))
 (= ?x82 ?x1065))))
 ))
 (let (($x5096 (forall ((n (_ BitVec 6)) )(let ((?x7435 (stack_t x_0 x_1 x_2 w_2 w_3 0 n)))
 (let ((?x1735 (stack_t x_0 x_1 x_2 w_2 w_3 1 n)))
 (let ((?x63 (sc_t 0)))
 (let (($x7659 (bvsle ?x63 n)))
 (or $x7659 (= ?x1735 ?x7435)))))))
 ))
 (let (($x5016 (= $x7121 (or (exc_halt_s 5) (not (bvsle (_ bv0 6) (bvadd (_ bv62 6) (sc_s 5))))))))
 (let (($x9174 (forall ((w (_ BitVec 256)) )(let ((?x4902 (storage_s x_0 x_1 x_2 w_2 w_3 5 w)))
 (let ((?x5093 (storage_s x_0 x_1 x_2 w_2 w_3 6 w)))
 (= ?x5093 ?x4902))))
 ))
 (let (($x7998 (forall ((n (_ BitVec 6)) )(let ((?x4629 (stack_s x_0 x_1 x_2 w_2 w_3 5 n)))
 (let ((?x9275 (stack_s x_0 x_1 x_2 w_2 w_3 6 n)))
 (or (= ?x9275 ?x4629) (bvsle (bvadd (_ bv62 6) (sc_s 5)) n)))))
 ))
 (let (($x3802 (= (used_gas_s x_0 x_1 x_2 w_2 w_3 6) (+ 3 (used_gas_s x_0 x_1 x_2 w_2 w_3 5)))))
 (let ((?x7932 (stack_s x_0 x_1 x_2 w_2 w_3 5 (bvadd (_ bv63 6) (sc_s 5)))))
 (let (($x6899 (= (stack_s x_0 x_1 x_2 w_2 w_3 6 (bvadd (_ bv62 6) ?x9114)) ?x7932)))
 (let ((?x4319 (sc_s 5)))
 (let ((?x11919 (bvadd (_ bv62 6) ?x4319)))
 (let ((?x2921 (stack_s x_0 x_1 x_2 w_2 w_3 5 ?x11919)))
 (let (($x10596 (= (stack_s x_0 x_1 x_2 w_2 w_3 6 (bvadd (_ bv63 6) ?x9114)) ?x2921)))
 (let (($x1862 (exc_halt_s 5)))
 (let (($x4578 (= $x1862 (or (exc_halt_s 4) (not (bvsle (_ bv0 6) (bvadd (_ bv61 6) (sc_s 4))))))))
 (let (($x4357 (forall ((w (_ BitVec 256)) )(let ((?x11703 (storage_s x_0 x_1 x_2 w_2 w_3 4 w)))
 (let ((?x4902 (storage_s x_0 x_1 x_2 w_2 w_3 5 w)))
 (= ?x4902 ?x11703))))
 ))
 (let (($x11189 (forall ((n (_ BitVec 6)) )(let ((?x6915 (stack_s x_0 x_1 x_2 w_2 w_3 4 n)))
 (let ((?x4629 (stack_s x_0 x_1 x_2 w_2 w_3 5 n)))
 (or (= ?x4629 ?x6915) (bvsle (bvadd (_ bv61 6) (sc_s 4)) n)))))
 ))
 (let ((?x8101 (used_gas_s x_0 x_1 x_2 w_2 w_3 5)))
 (let ((?x5040 (stack_s x_0 x_1 x_2 w_2 w_3 4 (bvadd (_ bv62 6) (sc_s 4)))))
 (let ((?x227 (stack_s x_0 x_1 x_2 w_2 w_3 4 (bvadd (_ bv63 6) (sc_s 4)))))
 (let (($x5001 (= (stack_s x_0 x_1 x_2 w_2 w_3 5 (bvadd (_ bv61 6) ?x4319)) ?x227)))
 (let (($x5495 (= ?x7932 (stack_s x_0 x_1 x_2 w_2 w_3 4 (bvadd (_ bv61 6) (sc_s 4))))))
 (let (($x9175 (exc_halt_s 4)))
 (let (($x4139 (= $x9175 (or (exc_halt_s 3) (not (bvsle (_ bv0 6) (bvadd (_ bv62 6) (sc_s 3))))))))
 (let (($x5819 (forall ((w (_ BitVec 256)) )(let ((?x9222 (storage_s x_0 x_1 x_2 w_2 w_3 3 w)))
 (let ((?x11703 (storage_s x_0 x_1 x_2 w_2 w_3 4 w)))
 (= ?x11703 ?x9222))))
 ))
 (let (($x11272 (forall ((n (_ BitVec 6)) )(let ((?x1794 (stack_s x_0 x_1 x_2 w_2 w_3 3 n)))
 (let ((?x6915 (stack_s x_0 x_1 x_2 w_2 w_3 4 n)))
 (or (= ?x6915 ?x1794) (bvsle (bvadd (_ bv62 6) (sc_s 3)) n)))))
 ))
 (let ((?x379 (used_gas_s x_0 x_1 x_2 w_2 w_3 4)))
 (let (($x5593 (= ?x5040 (stack_s x_0 x_1 x_2 w_2 w_3 3 (bvadd (_ bv63 6) (sc_s 3))))))
 (let (($x3920 (= ?x227 (stack_s x_0 x_1 x_2 w_2 w_3 3 (bvadd (_ bv62 6) (sc_s 3))))))
 (let (($x10052 (exc_halt_s 2)))
 (let (($x10796 (or (not (= ((_ extract 6 6) (bvadd (_ bv1 7) (concat (_ bv0 1) (sc_s 2)))) (_ bv0 1))) $x10052)))
 (let (($x8103 (exc_halt_s 3)))
 (let (($x7462 (forall ((w (_ BitVec 256)) )(let ((?x7372 (storage_s x_0 x_1 x_2 w_2 w_3 2 w)))
 (let ((?x9222 (storage_s x_0 x_1 x_2 w_2 w_3 3 w)))
 (= ?x9222 ?x7372))))
 ))
 (let (($x7628 (forall ((n (_ BitVec 6)) )(let ((?x1433 (stack_s x_0 x_1 x_2 w_2 w_3 2 n)))
 (let ((?x1794 (stack_s x_0 x_1 x_2 w_2 w_3 3 n)))
 (or (= ?x1794 ?x1433) (bvsle (sc_s 2) n)))))
 ))
 (let ((?x1310 (used_gas_s x_0 x_1 x_2 w_2 w_3 3)))
 (let (($x8780 (exc_halt_s 1)))
 (let (($x10672 (or (not (= ((_ extract 6 6) (bvadd (_ bv1 7) (concat (_ bv0 1) (sc_s 1)))) (_ bv0 1))) $x8780)))
 (let (($x7520 (forall ((w (_ BitVec 256)) )(let ((?x7545 (storage_s x_0 x_1 x_2 w_2 w_3 1 w)))
 (let ((?x7372 (storage_s x_0 x_1 x_2 w_2 w_3 2 w)))
 (= ?x7372 ?x7545))))
 ))
 (let (($x7459 (forall ((n (_ BitVec 6)) )(let ((?x9444 (stack_s x_0 x_1 x_2 w_2 w_3 1 n)))
 (let ((?x1433 (stack_s x_0 x_1 x_2 w_2 w_3 2 n)))
 (or (= ?x1433 ?x9444) (bvsle (sc_s 1) n)))))
 ))
 (let ((?x1927 (used_gas_s x_0 x_1 x_2 w_2 w_3 2)))
 (let (($x1495 (or $x57 (not (bvsle (_ bv0 6) (bvadd (_ bv61 6) ?x72))) (not (= ((_ extract 6 6) (bvadd (_ bv1 7) (concat (_ bv0 1) ?x72))) (_ bv0 1))))))
 (let (($x5960 (forall ((w (_ BitVec 256)) )(let ((?x5957 (storage_s x_0 x_1 x_2 w_2 w_3 0 w)))
 (let ((?x7545 (storage_s x_0 x_1 x_2 w_2 w_3 1 w)))
 (= ?x7545 ?x5957))))
 ))
 (let (($x2701 (forall ((n (_ BitVec 6)) )(let ((?x35 (stack_s x_0 x_1 x_2 w_2 w_3 0 n)))
 (let ((?x9444 (stack_s x_0 x_1 x_2 w_2 w_3 1 n)))
 (or (= ?x9444 ?x35) (bvsle (bvadd (_ bv61 6) (sc_s 0)) n)))))
 ))
 (let (($x5595 (= (stack_s x_0 x_1 x_2 w_2 w_3 1 (bvadd (_ bv63 6) ?x72)) (stack_s x_0 x_1 x_2 w_2 w_3 0 (bvadd (_ bv63 6) ?x72)))))
 (let (($x7365 (= (stack_s x_0 x_1 x_2 w_2 w_3 1 (bvadd (_ bv62 6) ?x72)) (stack_s x_0 x_1 x_2 w_2 w_3 0 (bvadd (_ bv62 6) ?x72)))))
 (let ((?x8065 (bvadd (_ bv61 6) ?x72)))
 (let ((?x9196 (stack_s x_0 x_1 x_2 w_2 w_3 0 ?x8065)))
 (let (($x7027 (= (stack_s x_0 x_1 x_2 w_2 w_3 1 (bvadd (_ bv63 6) (sc_s 1))) ?x9196)))
 (let (($x2043 (forall ((w (_ BitVec 256)) )(let ((?x5957 (storage_s x_0 x_1 x_2 w_2 w_3 0 w)))
 (= ?x5957 (_ bv0 256))))
 ))
 (let (($x9474 (= ?x8795 0)))
 (let (($x3232 (= (stack_s x_0 x_1 x_2 w_2 w_3 0 (_ bv2 6)) x_2)))
 (let (($x5470 (= (stack_s x_0 x_1 x_2 w_2 w_3 0 (_ bv1 6)) x_1)))
 (let (($x8634 (= (stack_s x_0 x_1 x_2 w_2 w_3 0 (_ bv0 6)) x_0)))
 (let (($x9108 (= ?x72 (_ bv3 6))))
 (and $x9108 $x8634 $x5470 $x3232 (not $x57) $x9474 $x2043 $x7027 (= (stack_s x_0 x_1 x_2 w_2 w_3 1 ?x8065) ?x9196) $x7365 $x5595 (= (used_gas_s x_0 x_1 x_2 w_2 w_3 1) (+ 3 ?x8795)) (= (sc_s 1) (bvadd (_ bv1 6) ?x72)) $x2701 $x5960 (= $x8780 $x1495) (= (stack_s x_0 x_1 x_2 w_2 w_3 2 (sc_s 1)) w_2) (= ?x1927 (+ 3 (used_gas_s x_0 x_1 x_2 w_2 w_3 1))) (= (sc_s 2) (bvadd (_ bv1 6) (sc_s 1))) $x7459 $x7520 (= $x10052 $x10672) (= (stack_s x_0 x_1 x_2 w_2 w_3 3 (sc_s 2)) w_3) (= ?x1310 (+ 3 ?x1927)) (= (sc_s 3) (bvadd (_ bv1 6) (sc_s 2))) $x7628 $x7462 (= $x8103 $x10796) $x3920 $x5593 (= ?x379 (+ 3 ?x1310)) (= (sc_s 4) (sc_s 3)) $x11272 $x5819 $x4139 $x5495 $x5001 (= ?x2921 ?x5040) (= ?x8101 (+ 3 ?x379)) (= ?x4319 (sc_s 4)) $x11189 $x4357 $x4578 $x10596 $x6899 $x3802 (= ?x9114 ?x4319) $x7998 $x9174 $x5016 (= (stack_t x_0 x_1 x_2 w_2 w_3 1 ?x63) w_2) (= (used_gas_t x_0 x_1 x_2 w_2 w_3 1) (+ 3 ?x8406)) (= ?x9666 (bvadd (_ bv1 6) ?x63)) $x5096 $x5418 $x8663 $x11179 (= (stack_t x_0 x_1 x_2 w_2 w_3 2 ?x1460) ?x10507) $x6075 $x9776 $x9606 (= ?x7136 (+ 3 (used_gas_t x_0 x_1 x_2 w_2 w_3 1))) (= (sc_t 2) (bvadd (_ bv1 6) ?x9666)) $x9191 $x4993 (= $x8186 $x9565) (= (stack_t x_0 x_1 x_2 w_2 w_3 3 (sc_t 2)) w_3) $x8078 (= ?x10013 (bvadd (_ bv1 6) (sc_t 2))) $x9921 $x692 (= $x9131 $x3731) $x73 $x9975 $x58 $x9396 $x5245 (not (and $x10208 $x258 $x10285 $x606))))))))))))))))))))))))))))))))))))))))))))))))))))))))))))))))))))))))))))))))))))))))))))))
 )
(check-sat)
(get-proof)
